RT is False
Default write of storage_offers_DA.csv just to have a file (but constraint should be inactive)
Reading model...
...model read.
creating competitive generators file...
...competitive generators recorded.
Loading data...
.. day-ahead data with real-time VRE data read.
Compiling instance...
...instance created.
Creating Offer Mitigation (model will solve as dispatch if TRUE)...
Solving...

Welcome to IBM(R) ILOG(R) CPLEX(R) Interactive Optimizer 12.9.0.0
  with Simplex, Mixed Integer & Barrier Optimizers
5725-A06 5725-A29 5724-Y48 5724-Y49 5724-Y54 5724-Y55 5655-Y21
Copyright IBM Corp. 1988, 2019.  All Rights Reserved.

Type 'help' for a list of available commands.
Type 'help' followed by a command name for more
information on commands.

CPLEX> Logfile 'cplex.log' closed.
Logfile 'C:\Users\llavin\Desktop\test919\logs\tmpgn2qynyj.cplex.log' open.
CPLEX> New value for parallel optimization mode: -1
CPLEX> New value for mixed integer optimality gap tolerance: 0.01
CPLEX> New value for integrality tolerance: 1e-09
CPLEX> New value for feasibility tolerance: 0.01
CPLEX> New value for deterministic time limit in ticks: 75000
CPLEX> Problem 'C:\Users\llavin\Desktop\test919\logs\tmpy_rv8qi2.pyomo.lp' read.
Read time = 0.06 sec. (3.04 ticks)
CPLEX> Problem name         : C:\Users\llavin\Desktop\test919\logs\tmpy_rv8qi2.pyomo.lp
Objective sense      : Minimize
Variables            :   26081  [Nneg: 1,  Box: 21616,  Free: 4464]
Objective nonzeros   :    2496
Linear constraints   :   27515  [Less: 14006,  Greater: 4416,  Equal: 9093]
  Nonzeros           :   89267
  RHS nonzeros       :   12268

Variables            : Min LB: -5000.000        Max UB: 1000000.       
Objective nonzeros   : Min   : 15.73158         Max   : 124.0997       
Linear constraints   :
  Nonzeros           : Min   : 0.8500000        Max   : 3000.000       
  RHS nonzeros       : Min   : 0.05833333       Max   : 5000.000       
CPLEX> CPXPARAM_Parallel                                -1
CPXPARAM_Simplex_Tolerances_Feasibility          0.01
CPXPARAM_DetTimeLimit                            75000
CPXPARAM_MIP_Tolerances_MIPGap                   0.01
CPXPARAM_MIP_Tolerances_Integrality              1.0000000000000001e-09
Parallel mode: opportunistic, using up to 32 threads for concurrent optimization.
Tried aggregator 1 time.
LP Presolve eliminated 21353 rows and 15461 columns.
Aggregator did 765 substitutions.
Reduced LP has 5397 rows, 9855 columns, and 31827 nonzeros.
Presolve time = 0.06 sec. (30.45 ticks)
Symmetry aggregator did 5565 additional substitutions.

Iteration log . . .
Iteration:     1   Dual objective     =             0.000000
Perturbation started.
Iteration:   101   Dual objective     =             0.000000
Iteration:   342   Dual objective     =             1.199465
Iteration:   592   Dual objective     =             1.760187
Iteration:   852   Dual objective     =             1.889698
Iteration:  1051   Dual objective     =             2.009044
Iteration:  1323   Dual objective     =             2.058661
Iteration:  1577   Dual objective     =             2.086310
Iteration:  1794   Dual objective     =             2.110829
Iteration:  2010   Dual objective     =             2.134703
Iteration:  2207   Dual objective     =             2.146634
Iteration:  2428   Dual objective     =         40994.441160
Iteration:  2709   Dual objective     =         48348.749121
Iteration:  3013   Dual objective     =         51617.671891
Removing perturbation.
Dual superbasis not built.
Using devex.

Primal simplex solved model.


Primal simplex - Optimal:  Objective =  5.1675917602e+04
Solution time =    0.17 sec.  Iterations = 1673 (1203)
Deterministic time = 79.48 ticks  (462.11 ticks/sec)

CPLEX> Solution written to file 'C:\Users\llavin\Desktop\test919\logs\tmpmvcvo398.cplex.sol'.
CPLEX> Exporting results... 
...storage offer mitigation file created
Converting model to MPEC...
...converted
NOTE: initial MIP solve with only storage competitive to get feasible solution
Solving...

Welcome to IBM(R) ILOG(R) CPLEX(R) Interactive Optimizer 12.9.0.0
  with Simplex, Mixed Integer & Barrier Optimizers
5725-A06 5725-A29 5724-Y48 5724-Y49 5724-Y54 5724-Y55 5655-Y21
Copyright IBM Corp. 1988, 2019.  All Rights Reserved.

Type 'help' for a list of available commands.
Type 'help' followed by a command name for more
information on commands.

CPLEX> Logfile 'cplex.log' closed.
Logfile 'C:\Users\llavin\Desktop\test919\logs\tmpvk5v1uvu.cplex.log' open.
CPLEX> New value for parallel optimization mode: -1
CPLEX> New value for mixed integer optimality gap tolerance: 0.01
CPLEX> New value for integrality tolerance: 1e-09
CPLEX> New value for feasibility tolerance: 0.01
CPLEX> New value for deterministic time limit in ticks: 75000
CPLEX> Problem 'C:\Users\llavin\Desktop\test919\logs\tmps6y4hk8c.pyomo.lp' read.
Read time = 0.23 sec. (14.78 ticks)
CPLEX> Problem name         : C:\Users\llavin\Desktop\test919\logs\tmps6y4hk8c.pyomo.lp
Objective sense      : Maximize
Variables            :   53805  [Nneg: 1,  Box: 22000,  Free: 4464,
                                 Binary: 27340]
Objective nonzeros   :    8977
Linear constraints   :  123205  [Less: 41346,  Greater: 59096,  Equal: 22763]
  Nonzeros           :  291798
  RHS nonzeros       :   67420

Variables            : Min LB: -5000.000        Max UB: 1000000.       
Objective nonzeros   : Min   : 0.05833333       Max   : 833.8250       
Linear constraints   :
  Nonzeros           : Min   : 0.05833333       Max   : 1000000.       
  RHS nonzeros       : Min   : 0.05833333       Max   : 1000000.       
CPLEX> CPXPARAM_Parallel                                -1
CPXPARAM_Simplex_Tolerances_Feasibility          0.01
CPXPARAM_DetTimeLimit                            75000
CPXPARAM_MIP_Tolerances_MIPGap                   0.01
CPXPARAM_MIP_Tolerances_Integrality              1.0000000000000001e-09
Tried aggregator 3 times.
MIP Presolve eliminated 88615 rows and 18917 columns.
MIP Presolve added 3386 rows and 0 columns.
MIP Presolve modified 24887 coefficients.
Aggregator did 12993 substitutions.
Reduced MIP has 24983 rows, 21341 columns, and 71280 nonzeros.
Reduced MIP has 8419 binaries, 0 generals, 0 SOSs, and 0 indicators.
Presolve time = 0.28 sec. (173.64 ticks)
Probing fixed 384 vars, tightened 2831 bounds.
Probing time = 1.20 sec. (886.15 ticks)
Tried aggregator 2 times.
MIP Presolve eliminated 870 rows and 769 columns.
MIP Presolve modified 2189 coefficients.
Aggregator did 36 substitutions.
Reduced MIP has 24077 rows, 20536 columns, and 68658 nonzeros.
Reduced MIP has 8035 binaries, 0 generals, 0 SOSs, and 0 indicators.
Presolve time = 0.11 sec. (67.90 ticks)
Probing time = 0.05 sec. (16.23 ticks)
Clique table members: 6648.
MIP emphasis: balance optimality and feasibility.
MIP search method: dynamic search.
Parallel mode: opportunistic, using up to 32 threads.
Root relaxation solution time = 0.48 sec. (387.61 ticks)

        Nodes                                         Cuts/
   Node  Left     Objective  IInf  Best Integer    Best Bound    ItCnt     Gap

      0     0     2951.1654  1607                   2951.1654     7600         
      0     0     2951.1654   637                   Cuts: 548     7871         
      0     0     2948.3797   513                   Cuts: 205     8017         
      0     0     2947.5394   483                   Cuts: 107     8094         
      0     0     2947.5394   453                    Cuts: 90     8153         
      0     0     2947.5394   415                    Cuts: 87     8224         
*     0+    0                         2947.5394     2947.5394             0.00%
      0     0        cutoff           2947.5394     2947.5394     8266    0.00%
Elapsed time = 4.91 sec. (3824.07 ticks, tree = 0.01 MB, solutions = 1)

Clique cuts applied:  18
Implied bound cuts applied:  29
Flow cuts applied:  344
Mixed integer rounding cuts applied:  48
Gomory fractional cuts applied:  26

Root node processing (before b&c):
  Real time             =    4.92 sec. (3825.92 ticks)
Parallel b&c, 32 threads:
  Real time             =    0.00 sec. (0.00 ticks)
  Sync time (average)   =    0.00 sec.
  Wait time (average)   =    0.00 sec.
                          ------------
Total (root+branch&cut) =    4.92 sec. (3825.92 ticks)

Solution pool: 1 solution saved.

MIP - Integer optimal solution:  Objective =  2.9475394245e+03
Solution time =    4.94 sec.  Iterations = 8266  Nodes = 0
Deterministic time = 3826.08 ticks  (774.98 ticks/sec)

CPLEX> Incumbent solution written to file 'C:\Users\llavin\Desktop\test919\logs\tmpsvw706c_.cplex.sol'.
CPLEX> NOTE: no warmstart specified for MIP iteration, default behavior is true
NOTE: resolving with all competitive generators using storage-only solution to warmstart
Solving...

Welcome to IBM(R) ILOG(R) CPLEX(R) Interactive Optimizer 12.9.0.0
  with Simplex, Mixed Integer & Barrier Optimizers
5725-A06 5725-A29 5724-Y48 5724-Y49 5724-Y54 5724-Y55 5655-Y21
Copyright IBM Corp. 1988, 2019.  All Rights Reserved.

Type 'help' for a list of available commands.
Type 'help' followed by a command name for more
information on commands.

CPLEX> Logfile 'cplex.log' closed.
Logfile 'C:\Users\llavin\Desktop\test919\logs\tmp1kusp084.cplex.log' open.
CPLEX> New value for parallel optimization mode: -1
CPLEX> New value for mixed integer optimality gap tolerance: 0.01
CPLEX> New value for integrality tolerance: 1e-09
CPLEX> New value for feasibility tolerance: 0.01
CPLEX> New value for deterministic time limit in ticks: 75000
CPLEX> Problem 'C:\Users\llavin\Desktop\test919\logs\tmpwfc2ksme.pyomo.lp' read.
Read time = 0.23 sec. (14.81 ticks)
CPLEX> MIP start file 'C:\Users\llavin\Desktop\test919\logs\tmprwkyfzct.cplex.mst' read.
CPLEX> Problem name         : C:\Users\llavin\Desktop\test919\logs\tmpwfc2ksme.pyomo.lp
Objective sense      : Maximize
Variables            :   54525  [Nneg: 1,  Box: 22720,  Free: 4464,
                                 Binary: 27340]
Objective nonzeros   :    9673
Linear constraints   :  123205  [Less: 41346,  Greater: 59096,  Equal: 22763]
  Nonzeros           :  291798
  RHS nonzeros       :   67420

Variables            : Min LB: -5000.000        Max UB: 1000000.       
Objective nonzeros   : Min   : 0.05833333       Max   : 787.5750       
Linear constraints   :
  Nonzeros           : Min   : 0.05833333       Max   : 1000000.       
  RHS nonzeros       : Min   : 0.05833333       Max   : 1000000.       
CPLEX> CPXPARAM_Parallel                                -1
CPXPARAM_Simplex_Tolerances_Feasibility          0.01
CPXPARAM_DetTimeLimit                            75000
CPXPARAM_MIP_Tolerances_MIPGap                   0.01
CPXPARAM_MIP_Tolerances_Integrality              1.0000000000000001e-09
Warning:  No solution found from 1 MIP starts.
Retaining values of one MIP start for possible repair.
Tried aggregator 3 times.
MIP Presolve eliminated 88615 rows and 19637 columns.
MIP Presolve added 3386 rows and 0 columns.
MIP Presolve modified 24887 coefficients.
Aggregator did 12993 substitutions.
Reduced MIP has 24983 rows, 21341 columns, and 71280 nonzeros.
Reduced MIP has 8419 binaries, 0 generals, 0 SOSs, and 0 indicators.
Presolve time = 0.30 sec. (174.00 ticks)
Probing fixed 384 vars, tightened 2831 bounds.
Probing time = 1.20 sec. (886.15 ticks)
Tried aggregator 2 times.
MIP Presolve eliminated 870 rows and 769 columns.
MIP Presolve modified 2189 coefficients.
Aggregator did 36 substitutions.
Reduced MIP has 24077 rows, 20536 columns, and 68658 nonzeros.
Reduced MIP has 8035 binaries, 0 generals, 0 SOSs, and 0 indicators.
Presolve time = 0.11 sec. (67.91 ticks)
Probing time = 0.03 sec. (16.23 ticks)
Clique table members: 6648.
MIP emphasis: balance optimality and feasibility.
MIP search method: dynamic search.
Parallel mode: opportunistic, using up to 32 threads.
Root relaxation solution time = 0.39 sec. (279.24 ticks)

        Nodes                                         Cuts/
   Node  Left     Objective  IInf  Best Integer    Best Bound    ItCnt     Gap

      0     0   160945.8457  1654                 160945.8457     6514         
      0     0   158284.4016   581                   Cuts: 867     7052         
      0     0   157829.9537   467                   Cuts: 305     7274         
      0     0   157758.5934   413                   Cuts: 160     7347         
      0     0   157758.5934   387                   Cuts: 122     7406         
      0     0   157758.5934   362                   Cuts: 115     7458         
      0     0   157758.5934   338                   Cuts: 115     7489         
      0     0   157758.5934   329                   Cuts: 103     7504         
      0     0   157758.5934   315                    Cuts: 83     7513         
      0     0   157758.5934   312                    Cuts: 71     7516         
      0     0   148066.2518   301                    Cuts: 82     7669         
      0     0   147760.9987   297                    Cuts: 76     7691         
      0     0   147757.2467   301                    Cuts: 62     7709         
Repair heuristic found nothing.
      0    21    infeasible                          Cuts: 31    11852         
Elapsed time = 11.63 sec. (6930.54 ticks, tree = 0.02 MB, solutions = 0)
    373    62    23476.6170   189                  68468.1864    14220         
    875   236    infeasible                        61915.4520    18816         
   1607   482     1944.2411   135                  54765.2003    25602         
   2291   792    -6233.5592    72                  54765.2003    32332         
   3063  1255    -1724.7202   104                  24879.9112    38202         
   3841  2067    -6653.9560    74                  24879.9112    45997         
*  4342+  983                         9250.1167    24879.9112           168.97%
   5629  1610     7611.9467   110     9250.1167    24879.9112    51114  168.97%
   6461   939    14248.5904   176     9250.1167    24879.9112    51751  168.97%
   8872  1733        cutoff           9316.2011    22138.5140    57199  137.63%
Elapsed time = 26.80 sec. (9900.12 ticks, tree = 9.19 MB, solutions = 6)

Clique cuts applied:  10
Cover cuts applied:  4
Implied bound cuts applied:  32
Flow cuts applied:  697
Mixed integer rounding cuts applied:  74
Gomory fractional cuts applied:  65

Root node processing (before b&c):
  Real time             =   10.14 sec. (6913.78 ticks)
Parallel b&c, 32 threads:
  Real time             =   20.33 sec. (4999.96 ticks)
  Sync time (average)   =    1.11 sec.
  Wait time (average)   =    0.00 sec.
                          ------------
Total (root+branch&cut) =   30.47 sec. (11913.74 ticks)

Solution pool: 6 solutions saved.

MIP - Integer optimal solution:  Objective =  9.3162011301e+03
Solution time =   30.48 sec.  Iterations = 65870  Nodes = 8924
Deterministic time = 11913.90 ticks  (390.82 ticks/sec)

CPLEX> Incumbent solution written to file 'C:\Users\llavin\Desktop\test919\logs\tmp77lbb_wv.cplex.sol'.
CPLEX> Exporting results... 
